33D32945 STP File, STP Format Version 1.0

SECTION Comment
Name    "Series B" 
Creator "A. M. Costa" 
Format  "Z.H. Fu and J. K. Hao"
Remark  "Sparse graph with random weights"
#TotalEdgeCost 1132
#BudgetFraction 10
END 

SECTION Graph 
Nodes 100 
Edges 200 
Root 1
Budget 113
HopLimit 9
E 1 36 5 
E 1 61 10 
E 1 74 5 
E 1 87 9 
E 2 3 7 
E 2 21 2 
E 2 53 8 
E 2 55 7 
E 2 69 10 
E 3 36 8 
E 3 43 9 
E 3 72 7 
E 3 92 6 
E 3 99 1 
E 4 6 5 
E 4 32 10 
E 5 14 8 
E 5 43 9 
E 5 54 1 
E 6 28 1 
E 6 41 2 
E 6 56 5 
E 6 64 1 
E 7 12 8 
E 7 18 5 
E 7 24 5 
E 7 39 9 
E 7 44 10 
E 7 75 6 
E 7 84 5 
E 8 19 2 
E 8 31 1 
E 8 60 4 
E 8 87 10 
E 8 88 3 
E 9 93 2 
E 10 17 8 
E 10 43 10 
E 11 15 7 
E 11 85 8 
E 11 92 7 
E 12 17 10 
E 12 64 1 
E 13 21 6 
E 13 47 5 
E 14 26 5 
E 14 62 9 
E 15 18 5 
E 15 31 10 
E 15 66 1 
E 16 46 10 
E 16 53 6 
E 16 67 6 
E 18 19 4 
E 18 30 5 
E 18 51 6 
E 18 55 1 
E 19 40 6 
E 19 62 5 
E 19 79 7 
E 19 89 8 
E 20 29 9 
E 20 85 2 
E 20 94 10 
E 21 56 10 
E 21 60 2 
E 21 62 8 
E 22 33 6 
E 22 45 5 
E 22 88 10 
E 23 33 10 
E 23 44 5 
E 23 47 6 
E 23 95 2 
E 24 46 1 
E 24 89 6 
E 24 90 3 
E 24 92 8 
E 24 98 2 
E 25 53 5 
E 25 72 1 
E 25 87 3 
E 26 35 3 
E 26 47 2 
E 26 78 3 
E 26 88 10 
E 27 64 6 
E 27 66 7 
E 27 79 7 
E 27 90 10 
E 28 40 10 
E 28 53 10 
E 28 58 5 
E 29 48 1 
E 29 51 8 
E 29 56 8 
E 29 60 7 
E 29 63 10 
E 29 92 3 
E 30 34 2 
E 30 81 8 
E 31 35 6 
E 31 57 8 
E 31 70 6 
E 31 77 6 
E 31 87 6 
E 32 42 1 
E 32 43 2 
E 32 48 7 
E 32 50 9 
E 32 79 2 
E 32 97 3 
E 33 59 10 
E 33 73 10 
E 34 97 1 
E 36 46 1 
E 36 78 1 
E 37 73 10 
E 37 78 8 
E 37 91 5 
E 38 74 2 
E 38 90 4 
E 38 95 3 
E 39 62 9 
E 39 72 1 
E 39 91 1 
E 40 77 10 
E 40 83 10 
E 40 88 6 
E 41 76 10 
E 43 51 2 
E 43 63 3 
E 43 87 2 
E 43 95 8 
E 43 98 10 
E 44 60 6 
E 44 86 6 
E 45 46 9 
E 45 65 2 
E 45 83 3 
E 46 96 3 
E 47 60 8 
E 47 83 10 
E 48 53 10 
E 48 58 1 
E 48 61 2 
E 49 84 1 
E 50 54 3 
E 50 65 1 
E 50 71 4 
E 50 90 7 
E 50 96 10 
E 51 54 5 
E 51 61 8 
E 52 72 7 
E 52 79 1 
E 53 77 4 
E 53 94 8 
E 53 99 1 
E 54 82 5 
E 54 95 9 
E 55 69 8 
E 55 91 9 
E 56 90 1 
E 57 62 9 
E 57 64 4 
E 57 88 8 
E 58 62 4 
E 58 77 5 
E 60 61 8 
E 62 97 8 
E 62 100 2 
E 66 96 9 
E 67 80 10 
E 68 73 7 
E 68 81 6 
E 69 87 4 
E 69 88 10 
E 71 94 8 
E 71 99 3 
E 72 91 8 
E 73 79 10 
E 73 97 4 
E 74 88 4 
E 75 99 2 
E 76 92 9 
E 77 84 4 
E 78 87 10 
E 78 93 4 
E 80 90 1 
E 82 87 1 
E 83 99 3 
E 84 85 6 
E 84 88 3 
E 85 93 1 
E 86 98 4 
E 86 99 9 
E 89 90 1 
E 91 92 7 
E 92 97 5 
END 

SECTION ProfitableVertices 
ProfitableVertices 17 
PV 1 60
PV 17 45
PV 20 88
PV 21 17
PV 25 16
PV 28 48
PV 37 70
PV 54 67
PV 59 40
PV 60 18
PV 69 85
PV 72 18
PV 76 45
PV 81 33
PV 82 34
PV 87 94
PV 97 62
END 

EOF 
